
--- Job M-2F.gms Start 03/09/23 13:53:43 41.2.0 5110e5ff WEX-WEI x86 64bit/MS Windows
--- Applying:
    D:\GAMS\41\gmsprmNT.txt
--- GAMS Parameters defined
    Input "G:\Mi unidad\5. TFG\src\gams\M-2F.gms"
    PageSize 0
    ScrDir "G:\Mi unidad\5. TFG\src\gams\225a\"
    SysDir D:\GAMS\41\
    LogOption 3
    ErrMsg 1
    ErrorLog 99
    IDE 1
    LstTitleLeftAligned 1
Licensee: GAMS Demo license for Antonio Sevilla Sastre   G221121|0002CO-GEN
          UCM, Spain                                               DL079880
          C:\Users\Antonio\Documents\GAMS\gamslice.txt
          antsev01@ucm.es, Antonio Sevilla Sastre                          
          Demo license for demonstration and instructional purposes only
Processor information: 1 socket(s), 14 core(s), and 20 thread(s) available
GAMS 41.2.0   Copyright (C) 1987-2022 GAMS Development. All rights reserved
--- Starting compilation
--- M-2F.gms(163) 3 Mb
--- Starting execution: elapsed 0:00:00.032
--- Generating MIP model modelo1
--- M-2F.gms(161) 4 Mb
---   915 rows  431 columns  2,807 non-zeroes
---   399 discrete-columns
--- Range statistics (absolute non-zero finite values)
--- RHS       [min, max] : [ 1.000E+00, 9.900E+01] - Zero values observed as well
--- Bound     [min, max] : [ 1.000E+00, 1.000E+00] - Zero values observed as well
--- Matrix    [min, max] : [ 1.000E-03, 9.900E+01]
--- Executing CPLEX (Solvelink=2): elapsed 0:00:00.174

IBM ILOG CPLEX   41.2.0 5110e5ff Nov 14, 2022          WEI x86 64bit/MS Window

--- *** This solver runs with a demo license. No commercial use.
--- GMO setup time: 0.00s
--- Space for names approximately 0.04 Mb
--- Use option 'names no' to turn use of names off
--- GMO memory 0.65 Mb (peak 0.66 Mb)
--- Dictionary memory 0.00 Mb
--- Cplex 22.1.0.0 link memory 0.02 Mb (peak 0.10 Mb)
--- Starting Cplex

Version identifier: 22.1.0.0 | 2022-03-09 | 1a383f8ce
CPXPARAM_Advance                                 0
CPXPARAM_Threads                                 1
CPXPARAM_MIP_Display                             4
CPXPARAM_MIP_Pool_Capacity                       0
CPXPARAM_MIP_Tolerances_AbsMIPGap                0
Generic callback                                 0x50
Found incumbent of value 49.000000 after 0.00 sec. (0.05 ticks)
Tried aggregator 2 times.
MIP Presolve eliminated 802 rows and 315 columns.
MIP Presolve modified 25 coefficients.
Aggregator did 75 substitutions.
Reduced MIP has 37 rows, 41 columns, and 162 nonzeros.
Reduced MIP has 3 binaries, 24 generals, 0 SOSs, and 0 indicators.
Presolve time = 0.00 sec. (1.32 ticks)
Probing time = 0.00 sec. (0.01 ticks)
Tried aggregator 1 time.
Detecting symmetries...
Reduced MIP has 37 rows, 41 columns, and 162 nonzeros.
Reduced MIP has 6 binaries, 35 generals, 0 SOSs, and 0 indicators.
Presolve time = 0.00 sec. (0.09 ticks)
Probing time = 0.00 sec. (0.01 ticks)
Clique table members: 3.
MIP emphasis: balance optimality and feasibility.
MIP search method: dynamic search.
Parallel mode: none, using 1 thread.
Tried aggregator 1 time.
No LP presolve or aggregator reductions.
Presolve time = 0.00 sec. (0.02 ticks)
Initializing dual steep norms . . .

Iteration log . . .
Iteration:     1   Dual objective     =             0.000000
Root relaxation solution time = 0.00 sec. (0.10 ticks)

        Nodes                                         Cuts/
   Node  Left     Objective  IInf  Best Integer    Best Bound    ItCnt     Gap

*     0+    0                           49.0000        0.0000           100.00%
Found incumbent of value 49.000000 after 0.03 sec. (1.64 ticks)
      0     0       18.7350    15       49.0000       18.7350       20   61.77%
      0     0       24.5207    15       49.0000       Cuts: 8       34   49.96%
      0     0       28.0000    21       49.0000       Cuts: 9       56   42.86%
*     0+    0                           35.0000       28.0000            20.00%
Found incumbent of value 35.000000 after 0.03 sec. (2.47 ticks)
      0     0        cutoff             35.0000                     66    0.00%
Elapsed time = 0.03 sec. (2.69 ticks, tree = 0.01 MB)

Mixed integer rounding cuts applied:  6
Zero-half cuts applied:  4
Lift and project cuts applied:  2
Gomory fractional cuts applied:  2

Root node processing (before b&c):
  Real time             =    0.03 sec. (2.69 ticks)
Sequential b&c:
  Real time             =    0.00 sec. (0.00 ticks)
                          ------------
Total (root+branch&cut) =    0.03 sec. (2.69 ticks)

--- MIP status (101): integer optimal solution.
--- Cplex Time: 0.03sec (det. 2.69 ticks)

--- Fixing integer variables and solving final LP...

Version identifier: 22.1.0.0 | 2022-03-09 | 1a383f8ce
CPXPARAM_Advance                                 2
CPXPARAM_Threads                                 1
CPXPARAM_MIP_Display                             4
CPXPARAM_MIP_Pool_Capacity                       0
CPXPARAM_MIP_Tolerances_AbsMIPGap                0
Tried aggregator 1 time.
LP Presolve eliminated 914 rows and 431 columns.
All rows and columns eliminated.
Presolve time = 0.00 sec. (0.35 ticks)

--- Fixed MIP status (1): optimal.
--- Cplex Time: 0.00sec (det. 0.65 ticks)


Proven optimal solution
MIP Solution:           35.000000    (66 iterations, 0 nodes)
Final Solve:            35.000000    (0 iterations)

Best possible:          35.000000
Absolute gap:            0.000000
Relative gap:            0.000000

--- Reading solution for model modelo1
--- Executing after solve: elapsed 0:00:00.324
--- Generating MIP model modelo1
--- M-2F.gms(162) 4 Mb
---   915 rows  431 columns  2,807 non-zeroes
---   399 discrete-columns
--- Range statistics (absolute non-zero finite values)
--- RHS       [min, max] : [ 1.000E+00, 9.900E+01] - Zero values observed as well
--- Bound     [min, max] : [ 1.000E+00, 1.000E+00] - Zero values observed as well
--- Matrix    [min, max] : [ 1.000E-03, 9.900E+01]
--- Executing CPLEX (Solvelink=2): elapsed 0:00:00.481

IBM ILOG CPLEX   41.2.0 5110e5ff Nov 14, 2022          WEI x86 64bit/MS Window

--- *** This solver runs with a demo license. No commercial use.
--- GMO setup time: 0.00s
--- Space for names approximately 0.04 Mb
--- Use option 'names no' to turn use of names off
--- GMO memory 0.65 Mb (peak 0.66 Mb)
--- Dictionary memory 0.00 Mb
--- Cplex 22.1.0.0 link memory 0.02 Mb (peak 0.10 Mb)
--- Starting Cplex

Version identifier: 22.1.0.0 | 2022-03-09 | 1a383f8ce
CPXPARAM_Advance                                 0
CPXPARAM_Threads                                 1
CPXPARAM_MIP_Display                             4
CPXPARAM_MIP_Pool_Capacity                       0
CPXPARAM_MIP_Tolerances_AbsMIPGap                0
Generic callback                                 0x50
Found incumbent of value 0.000000 after 0.00 sec. (0.07 ticks)
Tried aggregator 2 times.
MIP Presolve eliminated 802 rows and 313 columns.
MIP Presolve modified 25 coefficients.
Aggregator did 75 substitutions.
Reduced MIP has 37 rows, 43 columns, and 162 nonzeros.
Reduced MIP has 6 binaries, 24 generals, 0 SOSs, and 0 indicators.
Presolve time = 0.00 sec. (1.33 ticks)
Probing time = 0.00 sec. (0.01 ticks)
Tried aggregator 1 time.
Detecting symmetries...
MIP Presolve modified 3 coefficients.
Reduced MIP has 37 rows, 43 columns, and 162 nonzeros.
Reduced MIP has 9 binaries, 34 generals, 0 SOSs, and 0 indicators.
Presolve time = 0.00 sec. (0.10 ticks)
Probing time = 0.00 sec. (0.01 ticks)
Clique table members: 3.
MIP emphasis: balance optimality and feasibility.
MIP search method: dynamic search.
Parallel mode: none, using 1 thread.
Tried aggregator 1 time.
No LP presolve or aggregator reductions.
Presolve time = 0.00 sec. (0.02 ticks)
Initializing dual steep norms . . .

Iteration log . . .
Iteration:     1   Dual objective     =             3.000000
Root relaxation solution time = 0.00 sec. (0.07 ticks)

        Nodes                                         Cuts/
   Node  Left     Objective  IInf  Best Integer    Best Bound    ItCnt     Gap

*     0+    0                            0.0000        3.0000              --- 
Found incumbent of value 0.000000 after 0.02 sec. (1.65 ticks)
      0     0        3.0000     9        0.0000        3.0000       10     --- 
      0     0        3.0000     8        0.0000      Cuts: 15       27     --- 
      0     0        3.0000     2        0.0000       Cuts: 3       30     --- 
      0     0        3.0000    10        0.0000   ZeroHalf: 2       33     --- 
      0     0        3.0000    13        0.0000   ZeroHalf: 2       34     --- 
*     0+    0                            1.0000        3.0000           200.00%
Found incumbent of value 1.000000 after 0.02 sec. (2.75 ticks)
Detecting symmetries...
      0     2        3.0000    13        1.0000        3.0000       34  200.00%
Elapsed time = 0.03 sec. (3.11 ticks, tree = 0.01 MB)
*     1     1      integral     0        2.0000        3.0000       44   50.00%
Found incumbent of value 2.000000 after 0.03 sec. (3.16 ticks)

Implied bound cuts applied:  3
Zero-half cuts applied:  7
Lift and project cuts applied:  3
Gomory fractional cuts applied:  2

Root node processing (before b&c):
  Real time             =    0.03 sec. (3.11 ticks)
Sequential b&c:
  Real time             =    0.00 sec. (0.14 ticks)
                          ------------
Total (root+branch&cut) =    0.03 sec. (3.25 ticks)

--- MIP status (101): integer optimal solution.
--- Cplex Time: 0.03sec (det. 3.26 ticks)

--- Fixing integer variables and solving final LP...

Version identifier: 22.1.0.0 | 2022-03-09 | 1a383f8ce
CPXPARAM_Advance                                 2
CPXPARAM_Threads                                 1
CPXPARAM_MIP_Display                             4
CPXPARAM_MIP_Pool_Capacity                       0
CPXPARAM_MIP_Tolerances_AbsMIPGap                0
Tried aggregator 1 time.
LP Presolve eliminated 914 rows and 431 columns.
All rows and columns eliminated.
Presolve time = 0.00 sec. (0.35 ticks)

--- Fixed MIP status (1): optimal.
--- Cplex Time: 0.00sec (det. 0.65 ticks)


Proven optimal solution
MIP Solution:            2.000000    (61 iterations, 5 nodes)
Final Solve:             2.000000    (0 iterations)

Best possible:           2.000000
Absolute gap:            0.000000
Relative gap:            0.000000

--- Reading solution for model modelo1
*** Status: Normal completion
--- Job M-2F.gms Stop 03/09/23 13:53:44 elapsed 0:00:00.699
